p tw 120 1901 8 
1 9 
1 11 
1 101 
1 103 
2 7 
2 10 
2 12 
2 102 
2 104 
3 8 
3 10 
3 93 
4 7 
4 9 
4 94 
5 9 
5 10 
5 95 
6 7 
6 8 
6 96 
11 18 
11 19 
11 103 
12 17 
12 20 
12 104 
13 18 
13 20 
13 23 
14 17 
14 19 
14 24 
15 19 
15 20 
15 25 
16 17 
16 18 
16 26 
21 28 
21 29 
21 31 
21 105 
21 107 
22 27 
22 30 
22 32 
22 106 
22 108 
23 28 
23 30 
24 27 
24 29 
25 29 
25 30 
26 27 
26 28 
31 38 
31 39 
31 107 
32 37 
32 40 
32 108 
33 38 
33 40 
33 43 
34 37 
34 39 
34 44 
35 39 
35 40 
35 45 
36 37 
36 38 
36 46 
41 48 
41 49 
41 51 
41 109 
41 111 
42 47 
42 50 
42 52 
42 110 
42 112 
43 48 
43 50 
44 47 
44 49 
45 49 
45 50 
46 47 
46 48 
51 58 
51 59 
51 111 
52 57 
52 60 
52 112 
53 58 
53 60 
53 63 
54 57 
54 59 
54 64 
55 59 
55 60 
55 65 
56 57 
56 58 
56 66 
61 68 
61 69 
61 71 
61 113 
61 115 
62 67 
62 70 
62 72 
62 114 
62 116 
63 68 
63 70 
64 67 
64 69 
65 69 
65 70 
66 67 
66 68 
71 78 
71 79 
71 115 
72 77 
72 80 
72 116 
73 78 
73 80 
73 83 
74 77 
74 79 
74 84 
75 79 
75 80 
75 85 
76 77 
76 78 
76 86 
81 88 
81 89 
81 91 
81 117 
81 119 
82 87 
82 90 
82 92 
82 118 
82 120 
83 88 
83 90 
84 87 
84 89 
85 89 
85 90 
86 87 
86 88 
91 98 
91 99 
91 119 
92 97 
92 100 
92 120 
93 98 
93 100 
94 97 
94 99 
95 99 
95 100 
96 97 
96 98 
101 102 
103 104 
105 106 
107 108 
109 110 
111 112 
113 114 
115 116 
117 118 
119 120 
